1
1000
47
150 2
152 2
153 1
154 3
155 1
156 3
157 1
158 5
160 2
162 3
163 3
164 3
165 2
166 5
167 1
168 6
169 2
170 2
171 2
172 7
173 3
174 3
175 2
176 3
177 4
178 3
179 2
180 2
181 1
182 1
183 1
184 2
185 1
186 4
187 3
188 3
189 3
190 1
191 3
193 1
194 3
195 4
196 3
197 3
198 2
199 1
200 2
